(set-logic QF_S)
(declare-fun var0 () String)
(declare-fun var1 () String)
(declare-fun var2 () Int)
(declare-fun var3 () String)
(declare-fun var4 () String)
(declare-fun var5 () Int)
(assert (str.suffixof (str.substr var0 103 117) (str.at var1 var2)))
(assert (>= (str.len var3) (str.len var4)))
(assert (< (str.len var3) (str.len var1)))
(assert (<= (str.indexof var3 var4 108) (str.indexof var4 var1 var5)))
(check-sat)